Code/Rooms/2nwalls18-4.dzn
n = 18;

R =
[|0,0,0,0,0,0,5,5,5,5,5,0,0,0,2,2,0,0,
 |0,0,3,3,3,0,0,0,0,0,0,2,2,0,0,2,2,0,
 |0,8,4,4,4,4,0,3,3,3,0,0,0,0,0,0,0,0,
 |0,8,0,0,0,0,0,4,4,4,4,0,0,0,0,0,0,0,
 |0,8,0,0,0,3,3,3,0,0,0,0,0,3,3,3,0,0,
 |0,8,0,0,0,0,2,2,0,0,0,0,0,0,0,0,0,0,
 |5,8,0,8,8,8,8,8,8,8,8,0,0,0,0,0,0,0,
 |5,8,0,5,5,5,5,5,0,4,4,4,4,8,0,0,0,0,
 |5,8,5,0,0,0,0,0,0,0,0,2,5,8,0,0,0,0,
 |5,8,5,0,0,0,1,0,0,0,0,2,5,8,5,5,0,0,
 |5,0,5,0,0,0,0,0,0,0,0,0,5,8,5,5,0,3,
 |6,2,5,6,6,6,6,6,6,0,0,0,5,8,5,5,1,3,
 |6,2,5,0,1,0,0,0,0,3,3,3,5,8,5,5,0,3,
 |6,0,0,0,0,0,0,0,0,0,0,0,0,8,5,5,0,0,
 |6,0,0,0,0,0,0,0,0,2,0,0,0,8,0,0,0,0,
 |6,2,0,0,0,0,0,0,0,2,0,0,0,0,0,0,0,1,
 |6,2,0,0,0,2,2,4,4,4,4,0,0,0,0,0,0,0,
 |0,0,0,0,0,0,0,0,0,0,0,3,3,3,0,0,0,0,
 |];

