Code/Walks/2nwalls18-4.txt
=====UNSATISFIABLE=====
% time elapsed: 1.09 s
